PROBLEM NAME: tiny_n9_m8
KNAPSACK DATA TYPE: uncorrelated
DIMENSION: 9
NUMBER OF ITEMS: 8
CAPACITY OF KNAPSACK: 35
MIN SPEED: 0.1
MAX SPEED: 1.0
RENTING RATIO: 3.0
EDGE_WEIGHT_TYPE: EUC_2D
NODE_COORD_SECTION
1 0 0
2 5 0
3 10 2
4 12 7
5 9 12
6 4 13
7 0 10
8 2 5
9 6 7
ITEMS SECTION
1 100 10 2
2 150 18 3
3 80 9 4
4 220 25 5
5 60 7 6
6 130 15 7
7 90 11 8
8 70 8 9
